Crypto/instances/samples/hf_n23/hf_n23_cnf11.sol
c DPLL-like Solver for max-min SAT
f file hf_n23_cnf11.cnf
p cnf 23 87
s max  87 -6 -7 -5 8 -22 -18 -1 4 -9 -12 -19 -11 2 -3 -10 13 16 14 -17 15 -21 -23 -20
s min  71 -6 7 -5 -8 -22 -18 1 4 -9 12 -19 11 -2 -3 -10 13 16 -14 -17 15 -21 -23 20